GLPSOL--GLPK LP/MIP Solver 5.0
Parameter(s) specified in the command line:
 --lp ../modeles/4_69.lp --log 4_69.log
Reading problem data from '../modeles/4_69.lp'...
293 rows, 560 columns, 1952 non-zeros
276 integer variables, all of which are binary
863 lines were read
GLPK Integer Optimizer 5.0
293 rows, 560 columns, 1952 non-zeros
276 integer variables, all of which are binary
Preprocessing...
280 constraint coefficient(s) were reduced
293 rows, 556 columns, 1948 non-zeros
276 integer variables, all of which are binary
Scaling...
 A: min|aij| =  8.402e-04  max|aij| =  4.000e+00  ratio =  4.761e+03
GM: min|aij| =  1.204e-01  max|aij| =  8.307e+00  ratio =  6.900e+01
EQ: min|aij| =  1.449e-02  max|aij| =  1.000e+00  ratio =  6.900e+01
2N: min|aij| =  1.344e-02  max|aij| =  1.695e+00  ratio =  1.261e+02
Constructing initial basis...
Size of triangular part is 293
Solving LP relaxation...
GLPK Simplex Optimizer 5.0
293 rows, 556 columns, 1948 non-zeros
      0: obj =   8.000000000e+00 inf =   1.950e+01 (9)
     43: obj =   4.984243697e-01 inf =   0.000e+00 (0)
*   133: obj =  -1.998590982e+00 inf =   6.938e-17 (0)
OPTIMAL LP SOLUTION FOUND
Integer optimization begins...
Long-step dual simplex will be used
+   133: mip =     not found yet >=              -inf        (1; 0)
+   137: >>>>>  -1.998590982e+00 >=  -1.998590982e+00 < 0.1% (5; 0)
+   137: mip =  -1.998590982e+00 >=     tree is empty   0.0% (0; 9)
INTEGER OPTIMAL SOLUTION FOUND
Time used:   0.0 secs
Memory used: 0.8 Mb (886420 bytes)
